p cnf 384 3168
-1 -121 0
-1 -122 0
121 -121 0
122 -122 0
-21 -133 0
-21 -134 0
133 -133 0
134 -134 0
-41 -145 0
-41 -146 0
145 -145 0
146 -146 0
-61 -157 0
-61 -158 0
157 -157 0
158 -158 0
-81 -169 0
-81 -170 0
169 -169 0
170 -170 0
-101 -181 0
-101 -182 0
181 -181 0
182 -182 0
2 -121 0
2 -122 0
121 -121 0
122 -122 0
22 -133 0
22 -134 0
133 -133 0
134 -134 0
42 -145 0
42 -146 0
145 -145 0
146 -146 0
62 -157 0
62 -158 0
157 -157 0
158 -158 0
82 -169 0
82 -170 0
169 -169 0
170 -170 0
102 -181 0
102 -182 0
181 -181 0
182 -182 0
3 -121 0
3 -122 0
121 -121 0
122 -122 0
23 -133 0
23 -134 0
133 -133 0
134 -134 0
43 -145 0
43 -146 0
145 -145 0
146 -146 0
63 -157 0
63 -158 0
157 -157 0
158 -158 0
83 -169 0
83 -170 0
169 -169 0
170 -170 0
103 -181 0
103 -182 0
181 -181 0
182 -182 0
4 -121 0
4 -122 0
121 -121 0
122 -122 0
24 -133 0
24 -134 0
133 -133 0
134 -134 0
44 -145 0
44 -146 0
145 -145 0
146 -146 0
64 -157 0
64 -158 0
157 -157 0
158 -158 0
84 -169 0
84 -170 0
169 -169 0
170 -170 0
104 -181 0
104 -182 0
181 -181 0
182 -182 0
-5 -121 0
-5 -122 0
121 -121 0
122 -122 0
-25 -133 0
-25 -134 0
133 -133 0
134 -134 0
-45 -145 0
-45 -146 0
145 -145 0
146 -146 0
-65 -157 0
-65 -158 0
157 -157 0
158 -158 0
-85 -169 0
-85 -170 0
169 -169 0
170 -170 0
-105 -181 0
-105 -182 0
181 -181 0
182 -182 0
6 -121 0
6 -122 0
121 -121 0
122 -122 0
26 -133 0
26 -134 0
133 -133 0
134 -134 0
46 -145 0
46 -146 0
145 -145 0
146 -146 0
66 -157 0
66 -158 0
157 -157 0
158 -158 0
86 -169 0
86 -170 0
169 -169 0
170 -170 0
106 -181 0
106 -182 0
181 -181 0
182 -182 0
7 -193 -121 0
-7 193 -121 0
7 193 -122 0
-7 -193 -122 0
27 -193 -133 0
-27 193 -133 0
27 193 -134 0
-27 -193 -134 0
47 -193 -145 0
-47 193 -145 0
47 193 -146 0
-47 -193 -146 0
67 -193 -157 0
-67 193 -157 0
67 193 -158 0
-67 -193 -158 0
87 -193 -169 0
-87 193 -169 0
87 193 -170 0
-87 -193 -170 0
107 -193 -181 0
-107 193 -181 0
107 193 -182 0
-107 -193 -182 0
8 -194 -121 0
-8 194 -121 0
8 194 -122 0
-8 -194 -122 0
28 -194 -133 0
-28 194 -133 0
28 194 -134 0
-28 -194 -134 0
48 -194 -145 0
-48 194 -145 0
48 194 -146 0
-48 -194 -146 0
68 -194 -157 0
-68 194 -157 0
68 194 -158 0
-68 -194 -158 0
88 -194 -169 0
-88 194 -169 0
88 194 -170 0
-88 -194 -170 0
108 -194 -181 0
-108 194 -181 0
108 194 -182 0
-108 -194 -182 0
9 -121 0
9 -122 0
121 -121 0
122 -122 0
29 -133 0
29 -134 0
133 -133 0
134 -134 0
49 -145 0
49 -146 0
145 -145 0
146 -146 0
69 -157 0
69 -158 0
157 -157 0
158 -158 0
89 -169 0
89 -170 0
169 -169 0
170 -170 0
109 -181 0
109 -182 0
181 -181 0
182 -182 0
10 -121 0
10 -122 0
121 -121 0
122 -122 0
30 -133 0
30 -134 0
133 -133 0
134 -134 0
50 -145 0
50 -146 0
145 -145 0
146 -146 0
70 -157 0
70 -158 0
157 -157 0
158 -158 0
90 -169 0
90 -170 0
169 -169 0
170 -170 0
110 -181 0
110 -182 0
181 -181 0
182 -182 0
11 -195 -121 0
-11 195 -121 0
11 195 -122 0
-11 -195 -122 0
31 -195 -133 0
-31 195 -133 0
31 195 -134 0
-31 -195 -134 0
51 -195 -145 0
-51 195 -145 0
51 195 -146 0
-51 -195 -146 0
71 -195 -157 0
-71 195 -157 0
71 195 -158 0
-71 -195 -158 0
91 -195 -169 0
-91 195 -169 0
91 195 -170 0
-91 -195 -170 0
111 -195 -181 0
-111 195 -181 0
111 195 -182 0
-111 -195 -182 0
12 -121 0
12 -122 0
121 -121 0
122 -122 0
32 -133 0
32 -134 0
133 -133 0
134 -134 0
52 -145 0
52 -146 0
145 -145 0
146 -146 0
72 -157 0
72 -158 0
157 -157 0
158 -158 0
92 -169 0
92 -170 0
169 -169 0
170 -170 0
112 -181 0
112 -182 0
181 -181 0
182 -182 0
13 -196 -121 0
-13 196 -121 0
13 196 -122 0
-13 -196 -122 0
33 -196 -133 0
-33 196 -133 0
33 196 -134 0
-33 -196 -134 0
53 -196 -145 0
-53 196 -145 0
53 196 -146 0
-53 -196 -146 0
73 -196 -157 0
-73 196 -157 0
73 196 -158 0
-73 -196 -158 0
93 -196 -169 0
-93 196 -169 0
93 196 -170 0
-93 -196 -170 0
113 -196 -181 0
-113 196 -181 0
113 196 -182 0
-113 -196 -182 0
14 -121 0
14 -122 0
121 -121 0
122 -122 0
34 -133 0
34 -134 0
133 -133 0
134 -134 0
54 -145 0
54 -146 0
145 -145 0
146 -146 0
74 -157 0
74 -158 0
157 -157 0
158 -158 0
94 -169 0
94 -170 0
169 -169 0
170 -170 0
114 -181 0
114 -182 0
181 -181 0
182 -182 0
15 -197 -121 0
-15 197 -121 0
15 197 -122 0
-15 -197 -122 0
35 -197 -133 0
-35 197 -133 0
35 197 -134 0
-35 -197 -134 0
55 -197 -145 0
-55 197 -145 0
55 197 -146 0
-55 -197 -146 0
75 -197 -157 0
-75 197 -157 0
75 197 -158 0
-75 -197 -158 0
95 -197 -169 0
-95 197 -169 0
95 197 -170 0
-95 -197 -170 0
115 -197 -181 0
-115 197 -181 0
115 197 -182 0
-115 -197 -182 0
16 -121 0
16 -122 0
121 -121 0
122 -122 0
36 -133 0
36 -134 0
133 -133 0
134 -134 0
56 -145 0
56 -146 0
145 -145 0
146 -146 0
76 -157 0
76 -158 0
157 -157 0
158 -158 0
96 -169 0
96 -170 0
169 -169 0
170 -170 0
116 -181 0
116 -182 0
181 -181 0
182 -182 0
17 -121 0
17 -122 0
121 -121 0
122 -122 0
37 -133 0
37 -134 0
133 -133 0
134 -134 0
57 -145 0
57 -146 0
145 -145 0
146 -146 0
77 -157 0
77 -158 0
157 -157 0
158 -158 0
97 -169 0
97 -170 0
169 -169 0
170 -170 0
117 -181 0
117 -182 0
181 -181 0
182 -182 0
-18 -121 0
-18 -122 0
121 -121 0
122 -122 0
-38 -133 0
-38 -134 0
133 -133 0
134 -134 0
-58 -145 0
-58 -146 0
145 -145 0
146 -146 0
-78 -157 0
-78 -158 0
157 -157 0
158 -158 0
-98 -169 0
-98 -170 0
169 -169 0
170 -170 0
-118 -181 0
-118 -182 0
181 -181 0
182 -182 0
19 -198 -121 0
-19 198 -121 0
19 198 -122 0
-19 -198 -122 0
39 -198 -133 0
-39 198 -133 0
39 198 -134 0
-39 -198 -134 0
59 -198 -145 0
-59 198 -145 0
59 198 -146 0
-59 -198 -146 0
79 -198 -157 0
-79 198 -157 0
79 198 -158 0
-79 -198 -158 0
99 -198 -169 0
-99 198 -169 0
99 198 -170 0
-99 -198 -170 0
119 -198 -181 0
-119 198 -181 0
119 198 -182 0
-119 -198 -182 0
20 -121 0
20 -122 0
121 -121 0
122 -122 0
40 -133 0
40 -134 0
133 -133 0
134 -134 0
60 -145 0
60 -146 0
145 -145 0
146 -146 0
80 -157 0
80 -158 0
157 -157 0
158 -158 0
100 -169 0
100 -170 0
169 -169 0
170 -170 0
120 -181 0
120 -182 0
181 -181 0
182 -182 0
-313 121 0
313 -121 0
-314 122 0
313 -122 0
-313 -121 0
-314 -122 0
-325 121 313 0
325 -121 0
325 -313 0
-326 122 314 0
326 -122 0
326 -314 0
-325 -133 0
-326 -134 0
-337 133 325 0
337 -133 0
337 -325 0
-338 134 326 0
338 -134 0
338 -326 0
-337 -145 0
-338 -146 0
-349 145 337 0
349 -145 0
349 -337 0
-350 146 338 0
350 -146 0
350 -338 0
-349 -157 0
-350 -158 0
-361 157 349 0
361 -157 0
361 -349 0
-362 158 350 0
362 -158 0
362 -350 0
-361 -169 0
-362 -170 0
-373 169 361 0
373 -169 0
373 -361 0
-374 170 362 0
374 -170 0
374 -362 0
-373 -181 0
-374 -182 0
373 0
374 0
-1 -123 0
-1 -124 0
123 -123 0
124 -124 0
-21 -135 0
-21 -136 0
135 -135 0
136 -136 0
-41 -147 0
-41 -148 0
147 -147 0
148 -148 0
-61 -159 0
-61 -160 0
159 -159 0
160 -160 0
-81 -171 0
-81 -172 0
171 -171 0
172 -172 0
-101 -183 0
-101 -184 0
183 -183 0
184 -184 0
2 -123 0
2 -124 0
123 -123 0
124 -124 0
22 -135 0
22 -136 0
135 -135 0
136 -136 0
42 -147 0
42 -148 0
147 -147 0
148 -148 0
62 -159 0
62 -160 0
159 -159 0
160 -160 0
82 -171 0
82 -172 0
171 -171 0
172 -172 0
102 -183 0
102 -184 0
183 -183 0
184 -184 0
3 -123 0
3 -124 0
123 -123 0
124 -124 0
23 -135 0
23 -136 0
135 -135 0
136 -136 0
43 -147 0
43 -148 0
147 -147 0
148 -148 0
63 -159 0
63 -160 0
159 -159 0
160 -160 0
83 -171 0
83 -172 0
171 -171 0
172 -172 0
103 -183 0
103 -184 0
183 -183 0
184 -184 0
4 -123 0
4 -124 0
123 -123 0
124 -124 0
24 -135 0
24 -136 0
135 -135 0
136 -136 0
44 -147 0
44 -148 0
147 -147 0
148 -148 0
64 -159 0
64 -160 0
159 -159 0
160 -160 0
84 -171 0
84 -172 0
171 -171 0
172 -172 0
104 -183 0
104 -184 0
183 -183 0
184 -184 0
5 -199 -123 0
-5 199 -123 0
5 199 -124 0
-5 -199 -124 0
25 -199 -135 0
-25 199 -135 0
25 199 -136 0
-25 -199 -136 0
45 -199 -147 0
-45 199 -147 0
45 199 -148 0
-45 -199 -148 0
65 -199 -159 0
-65 199 -159 0
65 199 -160 0
-65 -199 -160 0
85 -199 -171 0
-85 199 -171 0
85 199 -172 0
-85 -199 -172 0
105 -199 -183 0
-105 199 -183 0
105 199 -184 0
-105 -199 -184 0
6 -123 0
6 -124 0
123 -123 0
124 -124 0
26 -135 0
26 -136 0
135 -135 0
136 -136 0
46 -147 0
46 -148 0
147 -147 0
148 -148 0
66 -159 0
66 -160 0
159 -159 0
160 -160 0
86 -171 0
86 -172 0
171 -171 0
172 -172 0
106 -183 0
106 -184 0
183 -183 0
184 -184 0
7 -200 -123 0
-7 200 -123 0
7 200 -124 0
-7 -200 -124 0
27 -200 -135 0
-27 200 -135 0
27 200 -136 0
-27 -200 -136 0
47 -200 -147 0
-47 200 -147 0
47 200 -148 0
-47 -200 -148 0
67 -200 -159 0
-67 200 -159 0
67 200 -160 0
-67 -200 -160 0
87 -200 -171 0
-87 200 -171 0
87 200 -172 0
-87 -200 -172 0
107 -200 -183 0
-107 200 -183 0
107 200 -184 0
-107 -200 -184 0
8 -201 -123 0
-8 201 -123 0
8 201 -124 0
-8 -201 -124 0
28 -201 -135 0
-28 201 -135 0
28 201 -136 0
-28 -201 -136 0
48 -201 -147 0
-48 201 -147 0
48 201 -148 0
-48 -201 -148 0
68 -201 -159 0
-68 201 -159 0
68 201 -160 0
-68 -201 -160 0
88 -201 -171 0
-88 201 -171 0
88 201 -172 0
-88 -201 -172 0
108 -201 -183 0
-108 201 -183 0
108 201 -184 0
-108 -201 -184 0
9 -202 -123 0
-9 202 -123 0
9 202 -124 0
-9 -202 -124 0
29 -202 -135 0
-29 202 -135 0
29 202 -136 0
-29 -202 -136 0
49 -202 -147 0
-49 202 -147 0
49 202 -148 0
-49 -202 -148 0
69 -202 -159 0
-69 202 -159 0
69 202 -160 0
-69 -202 -160 0
89 -202 -171 0
-89 202 -171 0
89 202 -172 0
-89 -202 -172 0
109 -202 -183 0
-109 202 -183 0
109 202 -184 0
-109 -202 -184 0
10 -123 0
10 -124 0
123 -123 0
124 -124 0
30 -135 0
30 -136 0
135 -135 0
136 -136 0
50 -147 0
50 -148 0
147 -147 0
148 -148 0
70 -159 0
70 -160 0
159 -159 0
160 -160 0
90 -171 0
90 -172 0
171 -171 0
172 -172 0
110 -183 0
110 -184 0
183 -183 0
184 -184 0
11 -123 0
11 -124 0
123 -123 0
124 -124 0
31 -135 0
31 -136 0
135 -135 0
136 -136 0
51 -147 0
51 -148 0
147 -147 0
148 -148 0
71 -159 0
71 -160 0
159 -159 0
160 -160 0
91 -171 0
91 -172 0
171 -171 0
172 -172 0
111 -183 0
111 -184 0
183 -183 0
184 -184 0
12 -123 0
12 -124 0
123 -123 0
124 -124 0
32 -135 0
32 -136 0
135 -135 0
136 -136 0
52 -147 0
52 -148 0
147 -147 0
148 -148 0
72 -159 0
72 -160 0
159 -159 0
160 -160 0
92 -171 0
92 -172 0
171 -171 0
172 -172 0
112 -183 0
112 -184 0
183 -183 0
184 -184 0
13 -203 -123 0
-13 203 -123 0
13 203 -124 0
-13 -203 -124 0
33 -203 -135 0
-33 203 -135 0
33 203 -136 0
-33 -203 -136 0
53 -203 -147 0
-53 203 -147 0
53 203 -148 0
-53 -203 -148 0
73 -203 -159 0
-73 203 -159 0
73 203 -160 0
-73 -203 -160 0
93 -203 -171 0
-93 203 -171 0
93 203 -172 0
-93 -203 -172 0
113 -203 -183 0
-113 203 -183 0
113 203 -184 0
-113 -203 -184 0
14 -123 0
14 -124 0
123 -123 0
124 -124 0
34 -135 0
34 -136 0
135 -135 0
136 -136 0
54 -147 0
54 -148 0
147 -147 0
148 -148 0
74 -159 0
74 -160 0
159 -159 0
160 -160 0
94 -171 0
94 -172 0
171 -171 0
172 -172 0
114 -183 0
114 -184 0
183 -183 0
184 -184 0
15 -204 -123 0
-15 204 -123 0
15 204 -124 0
-15 -204 -124 0
35 -204 -135 0
-35 204 -135 0
35 204 -136 0
-35 -204 -136 0
55 -204 -147 0
-55 204 -147 0
55 204 -148 0
-55 -204 -148 0
75 -204 -159 0
-75 204 -159 0
75 204 -160 0
-75 -204 -160 0
95 -204 -171 0
-95 204 -171 0
95 204 -172 0
-95 -204 -172 0
115 -204 -183 0
-115 204 -183 0
115 204 -184 0
-115 -204 -184 0
16 -205 -123 0
-16 205 -123 0
16 205 -124 0
-16 -205 -124 0
36 -205 -135 0
-36 205 -135 0
36 205 -136 0
-36 -205 -136 0
56 -205 -147 0
-56 205 -147 0
56 205 -148 0
-56 -205 -148 0
76 -205 -159 0
-76 205 -159 0
76 205 -160 0
-76 -205 -160 0
96 -205 -171 0
-96 205 -171 0
96 205 -172 0
-96 -205 -172 0
116 -205 -183 0
-116 205 -183 0
116 205 -184 0
-116 -205 -184 0
17 -123 0
17 -124 0
123 -123 0
124 -124 0
37 -135 0
37 -136 0
135 -135 0
136 -136 0
57 -147 0
57 -148 0
147 -147 0
148 -148 0
77 -159 0
77 -160 0
159 -159 0
160 -160 0
97 -171 0
97 -172 0
171 -171 0
172 -172 0
117 -183 0
117 -184 0
183 -183 0
184 -184 0
18 -206 -123 0
-18 206 -123 0
18 206 -124 0
-18 -206 -124 0
38 -206 -135 0
-38 206 -135 0
38 206 -136 0
-38 -206 -136 0
58 -206 -147 0
-58 206 -147 0
58 206 -148 0
-58 -206 -148 0
78 -206 -159 0
-78 206 -159 0
78 206 -160 0
-78 -206 -160 0
98 -206 -171 0
-98 206 -171 0
98 206 -172 0
-98 -206 -172 0
118 -206 -183 0
-118 206 -183 0
118 206 -184 0
-118 -206 -184 0
19 -123 0
19 -124 0
123 -123 0
124 -124 0
39 -135 0
39 -136 0
135 -135 0
136 -136 0
59 -147 0
59 -148 0
147 -147 0
148 -148 0
79 -159 0
79 -160 0
159 -159 0
160 -160 0
99 -171 0
99 -172 0
171 -171 0
172 -172 0
119 -183 0
119 -184 0
183 -183 0
184 -184 0
20 -207 -123 0
-20 207 -123 0
20 207 -124 0
-20 -207 -124 0
40 -207 -135 0
-40 207 -135 0
40 207 -136 0
-40 -207 -136 0
60 -207 -147 0
-60 207 -147 0
60 207 -148 0
-60 -207 -148 0
80 -207 -159 0
-80 207 -159 0
80 207 -160 0
-80 -207 -160 0
100 -207 -171 0
-100 207 -171 0
100 207 -172 0
-100 -207 -172 0
120 -207 -183 0
-120 207 -183 0
120 207 -184 0
-120 -207 -184 0
-315 123 0
315 -123 0
-316 124 0
315 -124 0
-315 -123 0
-316 -124 0
-327 123 315 0
327 -123 0
327 -315 0
-328 124 316 0
328 -124 0
328 -316 0
-327 -135 0
-328 -136 0
-339 135 327 0
339 -135 0
339 -327 0
-340 136 328 0
340 -136 0
340 -328 0
-339 -147 0
-340 -148 0
-351 147 339 0
351 -147 0
351 -339 0
-352 148 340 0
352 -148 0
352 -340 0
-351 -159 0
-352 -160 0
-363 159 351 0
363 -159 0
363 -351 0
-364 160 352 0
364 -160 0
364 -352 0
-363 -171 0
-364 -172 0
-375 171 363 0
375 -171 0
375 -363 0
-376 172 364 0
376 -172 0
376 -364 0
-375 -183 0
-376 -184 0
375 0
376 0
1 -125 0
1 -126 0
125 -125 0
126 -126 0
21 -137 0
21 -138 0
137 -137 0
138 -138 0
41 -149 0
41 -150 0
149 -149 0
150 -150 0
61 -161 0
61 -162 0
161 -161 0
162 -162 0
81 -173 0
81 -174 0
173 -173 0
174 -174 0
101 -185 0
101 -186 0
185 -185 0
186 -186 0
2 -125 0
2 -126 0
125 -125 0
126 -126 0
22 -137 0
22 -138 0
137 -137 0
138 -138 0
42 -149 0
42 -150 0
149 -149 0
150 -150 0
62 -161 0
62 -162 0
161 -161 0
162 -162 0
82 -173 0
82 -174 0
173 -173 0
174 -174 0
102 -185 0
102 -186 0
185 -185 0
186 -186 0
3 -208 -125 0
-3 208 -125 0
3 208 -126 0
-3 -208 -126 0
23 -208 -137 0
-23 208 -137 0
23 208 -138 0
-23 -208 -138 0
43 -208 -149 0
-43 208 -149 0
43 208 -150 0
-43 -208 -150 0
63 -208 -161 0
-63 208 -161 0
63 208 -162 0
-63 -208 -162 0
83 -208 -173 0
-83 208 -173 0
83 208 -174 0
-83 -208 -174 0
103 -208 -185 0
-103 208 -185 0
103 208 -186 0
-103 -208 -186 0
4 -125 0
4 -126 0
125 -125 0
126 -126 0
24 -137 0
24 -138 0
137 -137 0
138 -138 0
44 -149 0
44 -150 0
149 -149 0
150 -150 0
64 -161 0
64 -162 0
161 -161 0
162 -162 0
84 -173 0
84 -174 0
173 -173 0
174 -174 0
104 -185 0
104 -186 0
185 -185 0
186 -186 0
5 -125 0
5 -126 0
125 -125 0
126 -126 0
25 -137 0
25 -138 0
137 -137 0
138 -138 0
45 -149 0
45 -150 0
149 -149 0
150 -150 0
65 -161 0
65 -162 0
161 -161 0
162 -162 0
85 -173 0
85 -174 0
173 -173 0
174 -174 0
105 -185 0
105 -186 0
185 -185 0
186 -186 0
6 -125 0
6 -126 0
125 -125 0
126 -126 0
26 -137 0
26 -138 0
137 -137 0
138 -138 0
46 -149 0
46 -150 0
149 -149 0
150 -150 0
66 -161 0
66 -162 0
161 -161 0
162 -162 0
86 -173 0
86 -174 0
173 -173 0
174 -174 0
106 -185 0
106 -186 0
185 -185 0
186 -186 0
-7 -125 0
-7 -126 0
125 -125 0
126 -126 0
-27 -137 0
-27 -138 0
137 -137 0
138 -138 0
-47 -149 0
-47 -150 0
149 -149 0
150 -150 0
-67 -161 0
-67 -162 0
161 -161 0
162 -162 0
-87 -173 0
-87 -174 0
173 -173 0
174 -174 0
-107 -185 0
-107 -186 0
185 -185 0
186 -186 0
8 -125 0
8 -126 0
125 -125 0
126 -126 0
28 -137 0
28 -138 0
137 -137 0
138 -138 0
48 -149 0
48 -150 0
149 -149 0
150 -150 0
68 -161 0
68 -162 0
161 -161 0
162 -162 0
88 -173 0
88 -174 0
173 -173 0
174 -174 0
108 -185 0
108 -186 0
185 -185 0
186 -186 0
9 -125 0
9 -126 0
125 -125 0
126 -126 0
29 -137 0
29 -138 0
137 -137 0
138 -138 0
49 -149 0
49 -150 0
149 -149 0
150 -150 0
69 -161 0
69 -162 0
161 -161 0
162 -162 0
89 -173 0
89 -174 0
173 -173 0
174 -174 0
109 -185 0
109 -186 0
185 -185 0
186 -186 0
10 -125 0
10 -126 0
125 -125 0
126 -126 0
30 -137 0
30 -138 0
137 -137 0
138 -138 0
50 -149 0
50 -150 0
149 -149 0
150 -150 0
70 -161 0
70 -162 0
161 -161 0
162 -162 0
90 -173 0
90 -174 0
173 -173 0
174 -174 0
110 -185 0
110 -186 0
185 -185 0
186 -186 0
-11 -125 0
-11 -126 0
125 -125 0
126 -126 0
-31 -137 0
-31 -138 0
137 -137 0
138 -138 0
-51 -149 0
-51 -150 0
149 -149 0
150 -150 0
-71 -161 0
-71 -162 0
161 -161 0
162 -162 0
-91 -173 0
-91 -174 0
173 -173 0
174 -174 0
-111 -185 0
-111 -186 0
185 -185 0
186 -186 0
12 -125 0
12 -126 0
125 -125 0
126 -126 0
32 -137 0
32 -138 0
137 -137 0
138 -138 0
52 -149 0
52 -150 0
149 -149 0
150 -150 0
72 -161 0
72 -162 0
161 -161 0
162 -162 0
92 -173 0
92 -174 0
173 -173 0
174 -174 0
112 -185 0
112 -186 0
185 -185 0
186 -186 0
13 -125 0
13 -126 0
125 -125 0
126 -126 0
33 -137 0
33 -138 0
137 -137 0
138 -138 0
53 -149 0
53 -150 0
149 -149 0
150 -150 0
73 -161 0
73 -162 0
161 -161 0
162 -162 0
93 -173 0
93 -174 0
173 -173 0
174 -174 0
113 -185 0
113 -186 0
185 -185 0
186 -186 0
14 -125 0
14 -126 0
125 -125 0
126 -126 0
34 -137 0
34 -138 0
137 -137 0
138 -138 0
54 -149 0
54 -150 0
149 -149 0
150 -150 0
74 -161 0
74 -162 0
161 -161 0
162 -162 0
94 -173 0
94 -174 0
173 -173 0
174 -174 0
114 -185 0
114 -186 0
185 -185 0
186 -186 0
15 -209 -125 0
-15 209 -125 0
15 209 -126 0
-15 -209 -126 0
35 -209 -137 0
-35 209 -137 0
35 209 -138 0
-35 -209 -138 0
55 -209 -149 0
-55 209 -149 0
55 209 -150 0
-55 -209 -150 0
75 -209 -161 0
-75 209 -161 0
75 209 -162 0
-75 -209 -162 0
95 -209 -173 0
-95 209 -173 0
95 209 -174 0
-95 -209 -174 0
115 -209 -185 0
-115 209 -185 0
115 209 -186 0
-115 -209 -186 0
16 -125 0
16 -126 0
125 -125 0
126 -126 0
36 -137 0
36 -138 0
137 -137 0
138 -138 0
56 -149 0
56 -150 0
149 -149 0
150 -150 0
76 -161 0
76 -162 0
161 -161 0
162 -162 0
96 -173 0
96 -174 0
173 -173 0
174 -174 0
116 -185 0
116 -186 0
185 -185 0
186 -186 0
17 -125 0
17 -126 0
125 -125 0
126 -126 0
37 -137 0
37 -138 0
137 -137 0
138 -138 0
57 -149 0
57 -150 0
149 -149 0
150 -150 0
77 -161 0
77 -162 0
161 -161 0
162 -162 0
97 -173 0
97 -174 0
173 -173 0
174 -174 0
117 -185 0
117 -186 0
185 -185 0
186 -186 0
18 -210 -125 0
-18 210 -125 0
18 210 -126 0
-18 -210 -126 0
38 -210 -137 0
-38 210 -137 0
38 210 -138 0
-38 -210 -138 0
58 -210 -149 0
-58 210 -149 0
58 210 -150 0
-58 -210 -150 0
78 -210 -161 0
-78 210 -161 0
78 210 -162 0
-78 -210 -162 0
98 -210 -173 0
-98 210 -173 0
98 210 -174 0
-98 -210 -174 0
118 -210 -185 0
-118 210 -185 0
118 210 -186 0
-118 -210 -186 0
19 -125 0
19 -126 0
125 -125 0
126 -126 0
39 -137 0
39 -138 0
137 -137 0
138 -138 0
59 -149 0
59 -150 0
149 -149 0
150 -150 0
79 -161 0
79 -162 0
161 -161 0
162 -162 0
99 -173 0
99 -174 0
173 -173 0
174 -174 0
119 -185 0
119 -186 0
185 -185 0
186 -186 0
20 -211 -125 0
-20 211 -125 0
20 211 -126 0
-20 -211 -126 0
40 -211 -137 0
-40 211 -137 0
40 211 -138 0
-40 -211 -138 0
60 -211 -149 0
-60 211 -149 0
60 211 -150 0
-60 -211 -150 0
80 -211 -161 0
-80 211 -161 0
80 211 -162 0
-80 -211 -162 0
100 -211 -173 0
-100 211 -173 0
100 211 -174 0
-100 -211 -174 0
120 -211 -185 0
-120 211 -185 0
120 211 -186 0
-120 -211 -186 0
-317 125 0
317 -125 0
-318 126 0
317 -126 0
-317 -125 0
-318 -126 0
-329 125 317 0
329 -125 0
329 -317 0
-330 126 318 0
330 -126 0
330 -318 0
-329 -137 0
-330 -138 0
-341 137 329 0
341 -137 0
341 -329 0
-342 138 330 0
342 -138 0
342 -330 0
-341 -149 0
-342 -150 0
-353 149 341 0
353 -149 0
353 -341 0
-354 150 342 0
354 -150 0
354 -342 0
-353 -161 0
-354 -162 0
-365 161 353 0
365 -161 0
365 -353 0
-366 162 354 0
366 -162 0
366 -354 0
-365 -173 0
-366 -174 0
-377 173 365 0
377 -173 0
377 -365 0
-378 174 366 0
378 -174 0
378 -366 0
-377 -185 0
-378 -186 0
377 0
378 0
1 -212 -127 0
-1 212 -127 0
1 212 -128 0
-1 -212 -128 0
21 -212 -139 0
-21 212 -139 0
21 212 -140 0
-21 -212 -140 0
41 -212 -151 0
-41 212 -151 0
41 212 -152 0
-41 -212 -152 0
61 -212 -163 0
-61 212 -163 0
61 212 -164 0
-61 -212 -164 0
81 -212 -175 0
-81 212 -175 0
81 212 -176 0
-81 -212 -176 0
101 -212 -187 0
-101 212 -187 0
101 212 -188 0
-101 -212 -188 0
2 -127 0
2 -128 0
127 -127 0
128 -128 0
22 -139 0
22 -140 0
139 -139 0
140 -140 0
42 -151 0
42 -152 0
151 -151 0
152 -152 0
62 -163 0
62 -164 0
163 -163 0
164 -164 0
82 -175 0
82 -176 0
175 -175 0
176 -176 0
102 -187 0
102 -188 0
187 -187 0
188 -188 0
3 -213 -127 0
-3 213 -127 0
3 213 -128 0
-3 -213 -128 0
23 -213 -139 0
-23 213 -139 0
23 213 -140 0
-23 -213 -140 0
43 -213 -151 0
-43 213 -151 0
43 213 -152 0
-43 -213 -152 0
63 -213 -163 0
-63 213 -163 0
63 213 -164 0
-63 -213 -164 0
83 -213 -175 0
-83 213 -175 0
83 213 -176 0
-83 -213 -176 0
103 -213 -187 0
-103 213 -187 0
103 213 -188 0
-103 -213 -188 0
4 -127 0
4 -128 0
127 -127 0
128 -128 0
24 -139 0
24 -140 0
139 -139 0
140 -140 0
44 -151 0
44 -152 0
151 -151 0
152 -152 0
64 -163 0
64 -164 0
163 -163 0
164 -164 0
84 -175 0
84 -176 0
175 -175 0
176 -176 0
104 -187 0
104 -188 0
187 -187 0
188 -188 0
5 -214 -127 0
-5 214 -127 0
5 214 -128 0
-5 -214 -128 0
25 -214 -139 0
-25 214 -139 0
25 214 -140 0
-25 -214 -140 0
45 -214 -151 0
-45 214 -151 0
45 214 -152 0
-45 -214 -152 0
65 -214 -163 0
-65 214 -163 0
65 214 -164 0
-65 -214 -164 0
85 -214 -175 0
-85 214 -175 0
85 214 -176 0
-85 -214 -176 0
105 -214 -187 0
-105 214 -187 0
105 214 -188 0
-105 -214 -188 0
6 -127 0
6 -128 0
127 -127 0
128 -128 0
26 -139 0
26 -140 0
139 -139 0
140 -140 0
46 -151 0
46 -152 0
151 -151 0
152 -152 0
66 -163 0
66 -164 0
163 -163 0
164 -164 0
86 -175 0
86 -176 0
175 -175 0
176 -176 0
106 -187 0
106 -188 0
187 -187 0
188 -188 0
7 -215 -127 0
-7 215 -127 0
7 215 -128 0
-7 -215 -128 0
27 -215 -139 0
-27 215 -139 0
27 215 -140 0
-27 -215 -140 0
47 -215 -151 0
-47 215 -151 0
47 215 -152 0
-47 -215 -152 0
67 -215 -163 0
-67 215 -163 0
67 215 -164 0
-67 -215 -164 0
87 -215 -175 0
-87 215 -175 0
87 215 -176 0
-87 -215 -176 0
107 -215 -187 0
-107 215 -187 0
107 215 -188 0
-107 -215 -188 0
8 -216 -127 0
-8 216 -127 0
8 216 -128 0
-8 -216 -128 0
28 -216 -139 0
-28 216 -139 0
28 216 -140 0
-28 -216 -140 0
48 -216 -151 0
-48 216 -151 0
48 216 -152 0
-48 -216 -152 0
68 -216 -163 0
-68 216 -163 0
68 216 -164 0
-68 -216 -164 0
88 -216 -175 0
-88 216 -175 0
88 216 -176 0
-88 -216 -176 0
108 -216 -187 0
-108 216 -187 0
108 216 -188 0
-108 -216 -188 0
9 -127 0
9 -128 0
127 -127 0
128 -128 0
29 -139 0
29 -140 0
139 -139 0
140 -140 0
49 -151 0
49 -152 0
151 -151 0
152 -152 0
69 -163 0
69 -164 0
163 -163 0
164 -164 0
89 -175 0
89 -176 0
175 -175 0
176 -176 0
109 -187 0
109 -188 0
187 -187 0
188 -188 0
10 -127 0
10 -128 0
127 -127 0
128 -128 0
30 -139 0
30 -140 0
139 -139 0
140 -140 0
50 -151 0
50 -152 0
151 -151 0
152 -152 0
70 -163 0
70 -164 0
163 -163 0
164 -164 0
90 -175 0
90 -176 0
175 -175 0
176 -176 0
110 -187 0
110 -188 0
187 -187 0
188 -188 0
11 -217 -127 0
-11 217 -127 0
11 217 -128 0
-11 -217 -128 0
31 -217 -139 0
-31 217 -139 0
31 217 -140 0
-31 -217 -140 0
51 -217 -151 0
-51 217 -151 0
51 217 -152 0
-51 -217 -152 0
71 -217 -163 0
-71 217 -163 0
71 217 -164 0
-71 -217 -164 0
91 -217 -175 0
-91 217 -175 0
91 217 -176 0
-91 -217 -176 0
111 -217 -187 0
-111 217 -187 0
111 217 -188 0
-111 -217 -188 0
12 -127 0
12 -128 0
127 -127 0
128 -128 0
32 -139 0
32 -140 0
139 -139 0
140 -140 0
52 -151 0
52 -152 0
151 -151 0
152 -152 0
72 -163 0
72 -164 0
163 -163 0
164 -164 0
92 -175 0
92 -176 0
175 -175 0
176 -176 0
112 -187 0
112 -188 0
187 -187 0
188 -188 0
13 -218 -127 0
-13 218 -127 0
13 218 -128 0
-13 -218 -128 0
33 -218 -139 0
-33 218 -139 0
33 218 -140 0
-33 -218 -140 0
53 -218 -151 0
-53 218 -151 0
53 218 -152 0
-53 -218 -152 0
73 -218 -163 0
-73 218 -163 0
73 218 -164 0
-73 -218 -164 0
93 -218 -175 0
-93 218 -175 0
93 218 -176 0
-93 -218 -176 0
113 -218 -187 0
-113 218 -187 0
113 218 -188 0
-113 -218 -188 0
14 -127 0
14 -128 0
127 -127 0
128 -128 0
34 -139 0
34 -140 0
139 -139 0
140 -140 0
54 -151 0
54 -152 0
151 -151 0
152 -152 0
74 -163 0
74 -164 0
163 -163 0
164 -164 0
94 -175 0
94 -176 0
175 -175 0
176 -176 0
114 -187 0
114 -188 0
187 -187 0
188 -188 0
15 -219 -127 0
-15 219 -127 0
15 219 -128 0
-15 -219 -128 0
35 -219 -139 0
-35 219 -139 0
35 219 -140 0
-35 -219 -140 0
55 -219 -151 0
-55 219 -151 0
55 219 -152 0
-55 -219 -152 0
75 -219 -163 0
-75 219 -163 0
75 219 -164 0
-75 -219 -164 0
95 -219 -175 0
-95 219 -175 0
95 219 -176 0
-95 -219 -176 0
115 -219 -187 0
-115 219 -187 0
115 219 -188 0
-115 -219 -188 0
16 -127 0
16 -128 0
127 -127 0
128 -128 0
36 -139 0
36 -140 0
139 -139 0
140 -140 0
56 -151 0
56 -152 0
151 -151 0
152 -152 0
76 -163 0
76 -164 0
163 -163 0
164 -164 0
96 -175 0
96 -176 0
175 -175 0
176 -176 0
116 -187 0
116 -188 0
187 -187 0
188 -188 0
17 -127 0
17 -128 0
127 -127 0
128 -128 0
37 -139 0
37 -140 0
139 -139 0
140 -140 0
57 -151 0
57 -152 0
151 -151 0
152 -152 0
77 -163 0
77 -164 0
163 -163 0
164 -164 0
97 -175 0
97 -176 0
175 -175 0
176 -176 0
117 -187 0
117 -188 0
187 -187 0
188 -188 0
-18 -127 0
-18 -128 0
127 -127 0
128 -128 0
-38 -139 0
-38 -140 0
139 -139 0
140 -140 0
-58 -151 0
-58 -152 0
151 -151 0
152 -152 0
-78 -163 0
-78 -164 0
163 -163 0
164 -164 0
-98 -175 0
-98 -176 0
175 -175 0
176 -176 0
-118 -187 0
-118 -188 0
187 -187 0
188 -188 0
19 -127 0
19 -128 0
127 -127 0
128 -128 0
39 -139 0
39 -140 0
139 -139 0
140 -140 0
59 -151 0
59 -152 0
151 -151 0
152 -152 0
79 -163 0
79 -164 0
163 -163 0
164 -164 0
99 -175 0
99 -176 0
175 -175 0
176 -176 0
119 -187 0
119 -188 0
187 -187 0
188 -188 0
20 -127 0
20 -128 0
127 -127 0
128 -128 0
40 -139 0
40 -140 0
139 -139 0
140 -140 0
60 -151 0
60 -152 0
151 -151 0
152 -152 0
80 -163 0
80 -164 0
163 -163 0
164 -164 0
100 -175 0
100 -176 0
175 -175 0
176 -176 0
120 -187 0
120 -188 0
187 -187 0
188 -188 0
-319 127 0
319 -127 0
-320 128 0
319 -128 0
-319 -127 0
-320 -128 0
-331 127 319 0
331 -127 0
331 -319 0
-332 128 320 0
332 -128 0
332 -320 0
-331 -139 0
-332 -140 0
-343 139 331 0
343 -139 0
343 -331 0
-344 140 332 0
344 -140 0
344 -332 0
-343 -151 0
-344 -152 0
-355 151 343 0
355 -151 0
355 -343 0
-356 152 344 0
356 -152 0
356 -344 0
-355 -163 0
-356 -164 0
-367 163 355 0
367 -163 0
367 -355 0
-368 164 356 0
368 -164 0
368 -356 0
-367 -175 0
-368 -176 0
-379 175 367 0
379 -175 0
379 -367 0
-380 176 368 0
380 -176 0
380 -368 0
-379 -187 0
-380 -188 0
379 0
380 0
1 -220 -129 0
-1 220 -129 0
1 220 -130 0
-1 -220 -130 0
21 -220 -141 0
-21 220 -141 0
21 220 -142 0
-21 -220 -142 0
41 -220 -153 0
-41 220 -153 0
41 220 -154 0
-41 -220 -154 0
61 -220 -165 0
-61 220 -165 0
61 220 -166 0
-61 -220 -166 0
81 -220 -177 0
-81 220 -177 0
81 220 -178 0
-81 -220 -178 0
101 -220 -189 0
-101 220 -189 0
101 220 -190 0
-101 -220 -190 0
2 -129 0
2 -130 0
129 -129 0
130 -130 0
22 -141 0
22 -142 0
141 -141 0
142 -142 0
42 -153 0
42 -154 0
153 -153 0
154 -154 0
62 -165 0
62 -166 0
165 -165 0
166 -166 0
82 -177 0
82 -178 0
177 -177 0
178 -178 0
102 -189 0
102 -190 0
189 -189 0
190 -190 0
3 -221 -129 0
-3 221 -129 0
3 221 -130 0
-3 -221 -130 0
23 -221 -141 0
-23 221 -141 0
23 221 -142 0
-23 -221 -142 0
43 -221 -153 0
-43 221 -153 0
43 221 -154 0
-43 -221 -154 0
63 -221 -165 0
-63 221 -165 0
63 221 -166 0
-63 -221 -166 0
83 -221 -177 0
-83 221 -177 0
83 221 -178 0
-83 -221 -178 0
103 -221 -189 0
-103 221 -189 0
103 221 -190 0
-103 -221 -190 0
4 -222 -129 0
-4 222 -129 0
4 222 -130 0
-4 -222 -130 0
24 -222 -141 0
-24 222 -141 0
24 222 -142 0
-24 -222 -142 0
44 -222 -153 0
-44 222 -153 0
44 222 -154 0
-44 -222 -154 0
64 -222 -165 0
-64 222 -165 0
64 222 -166 0
-64 -222 -166 0
84 -222 -177 0
-84 222 -177 0
84 222 -178 0
-84 -222 -178 0
104 -222 -189 0
-104 222 -189 0
104 222 -190 0
-104 -222 -190 0
5 -223 -129 0
-5 223 -129 0
5 223 -130 0
-5 -223 -130 0
25 -223 -141 0
-25 223 -141 0
25 223 -142 0
-25 -223 -142 0
45 -223 -153 0
-45 223 -153 0
45 223 -154 0
-45 -223 -154 0
65 -223 -165 0
-65 223 -165 0
65 223 -166 0
-65 -223 -166 0
85 -223 -177 0
-85 223 -177 0
85 223 -178 0
-85 -223 -178 0
105 -223 -189 0
-105 223 -189 0
105 223 -190 0
-105 -223 -190 0
6 -129 0
6 -130 0
129 -129 0
130 -130 0
26 -141 0
26 -142 0
141 -141 0
142 -142 0
46 -153 0
46 -154 0
153 -153 0
154 -154 0
66 -165 0
66 -166 0
165 -165 0
166 -166 0
86 -177 0
86 -178 0
177 -177 0
178 -178 0
106 -189 0
106 -190 0
189 -189 0
190 -190 0
7 -224 -129 0
-7 224 -129 0
7 224 -130 0
-7 -224 -130 0
27 -224 -141 0
-27 224 -141 0
27 224 -142 0
-27 -224 -142 0
47 -224 -153 0
-47 224 -153 0
47 224 -154 0
-47 -224 -154 0
67 -224 -165 0
-67 224 -165 0
67 224 -166 0
-67 -224 -166 0
87 -224 -177 0
-87 224 -177 0
87 224 -178 0
-87 -224 -178 0
107 -224 -189 0
-107 224 -189 0
107 224 -190 0
-107 -224 -190 0
8 -225 -129 0
-8 225 -129 0
8 225 -130 0
-8 -225 -130 0
28 -225 -141 0
-28 225 -141 0
28 225 -142 0
-28 -225 -142 0
48 -225 -153 0
-48 225 -153 0
48 225 -154 0
-48 -225 -154 0
68 -225 -165 0
-68 225 -165 0
68 225 -166 0
-68 -225 -166 0
88 -225 -177 0
-88 225 -177 0
88 225 -178 0
-88 -225 -178 0
108 -225 -189 0
-108 225 -189 0
108 225 -190 0
-108 -225 -190 0
9 -129 0
9 -130 0
129 -129 0
130 -130 0
29 -141 0
29 -142 0
141 -141 0
142 -142 0
49 -153 0
49 -154 0
153 -153 0
154 -154 0
69 -165 0
69 -166 0
165 -165 0
166 -166 0
89 -177 0
89 -178 0
177 -177 0
178 -178 0
109 -189 0
109 -190 0
189 -189 0
190 -190 0
10 -129 0
10 -130 0
129 -129 0
130 -130 0
30 -141 0
30 -142 0
141 -141 0
142 -142 0
50 -153 0
50 -154 0
153 -153 0
154 -154 0
70 -165 0
70 -166 0
165 -165 0
166 -166 0
90 -177 0
90 -178 0
177 -177 0
178 -178 0
110 -189 0
110 -190 0
189 -189 0
190 -190 0
11 -226 -129 0
-11 226 -129 0
11 226 -130 0
-11 -226 -130 0
31 -226 -141 0
-31 226 -141 0
31 226 -142 0
-31 -226 -142 0
51 -226 -153 0
-51 226 -153 0
51 226 -154 0
-51 -226 -154 0
71 -226 -165 0
-71 226 -165 0
71 226 -166 0
-71 -226 -166 0
91 -226 -177 0
-91 226 -177 0
91 226 -178 0
-91 -226 -178 0
111 -226 -189 0
-111 226 -189 0
111 226 -190 0
-111 -226 -190 0
12 -129 0
12 -130 0
129 -129 0
130 -130 0
32 -141 0
32 -142 0
141 -141 0
142 -142 0
52 -153 0
52 -154 0
153 -153 0
154 -154 0
72 -165 0
72 -166 0
165 -165 0
166 -166 0
92 -177 0
92 -178 0
177 -177 0
178 -178 0
112 -189 0
112 -190 0
189 -189 0
190 -190 0
13 -227 -129 0
-13 227 -129 0
13 227 -130 0
-13 -227 -130 0
33 -227 -141 0
-33 227 -141 0
33 227 -142 0
-33 -227 -142 0
53 -227 -153 0
-53 227 -153 0
53 227 -154 0
-53 -227 -154 0
73 -227 -165 0
-73 227 -165 0
73 227 -166 0
-73 -227 -166 0
93 -227 -177 0
-93 227 -177 0
93 227 -178 0
-93 -227 -178 0
113 -227 -189 0
-113 227 -189 0
113 227 -190 0
-113 -227 -190 0
14 -129 0
14 -130 0
129 -129 0
130 -130 0
34 -141 0
34 -142 0
141 -141 0
142 -142 0
54 -153 0
54 -154 0
153 -153 0
154 -154 0
74 -165 0
74 -166 0
165 -165 0
166 -166 0
94 -177 0
94 -178 0
177 -177 0
178 -178 0
114 -189 0
114 -190 0
189 -189 0
190 -190 0
15 -228 -129 0
-15 228 -129 0
15 228 -130 0
-15 -228 -130 0
35 -228 -141 0
-35 228 -141 0
35 228 -142 0
-35 -228 -142 0
55 -228 -153 0
-55 228 -153 0
55 228 -154 0
-55 -228 -154 0
75 -228 -165 0
-75 228 -165 0
75 228 -166 0
-75 -228 -166 0
95 -228 -177 0
-95 228 -177 0
95 228 -178 0
-95 -228 -178 0
115 -228 -189 0
-115 228 -189 0
115 228 -190 0
-115 -228 -190 0
16 -229 -129 0
-16 229 -129 0
16 229 -130 0
-16 -229 -130 0
36 -229 -141 0
-36 229 -141 0
36 229 -142 0
-36 -229 -142 0
56 -229 -153 0
-56 229 -153 0
56 229 -154 0
-56 -229 -154 0
76 -229 -165 0
-76 229 -165 0
76 229 -166 0
-76 -229 -166 0
96 -229 -177 0
-96 229 -177 0
96 229 -178 0
-96 -229 -178 0
116 -229 -189 0
-116 229 -189 0
116 229 -190 0
-116 -229 -190 0
17 -129 0
17 -130 0
129 -129 0
130 -130 0
37 -141 0
37 -142 0
141 -141 0
142 -142 0
57 -153 0
57 -154 0
153 -153 0
154 -154 0
77 -165 0
77 -166 0
165 -165 0
166 -166 0
97 -177 0
97 -178 0
177 -177 0
178 -178 0
117 -189 0
117 -190 0
189 -189 0
190 -190 0
-18 -129 0
-18 -130 0
129 -129 0
130 -130 0
-38 -141 0
-38 -142 0
141 -141 0
142 -142 0
-58 -153 0
-58 -154 0
153 -153 0
154 -154 0
-78 -165 0
-78 -166 0
165 -165 0
166 -166 0
-98 -177 0
-98 -178 0
177 -177 0
178 -178 0
-118 -189 0
-118 -190 0
189 -189 0
190 -190 0
19 -230 -129 0
-19 230 -129 0
19 230 -130 0
-19 -230 -130 0
39 -230 -141 0
-39 230 -141 0
39 230 -142 0
-39 -230 -142 0
59 -230 -153 0
-59 230 -153 0
59 230 -154 0
-59 -230 -154 0
79 -230 -165 0
-79 230 -165 0
79 230 -166 0
-79 -230 -166 0
99 -230 -177 0
-99 230 -177 0
99 230 -178 0
-99 -230 -178 0
119 -230 -189 0
-119 230 -189 0
119 230 -190 0
-119 -230 -190 0
20 -129 0
20 -130 0
129 -129 0
130 -130 0
40 -141 0
40 -142 0
141 -141 0
142 -142 0
60 -153 0
60 -154 0
153 -153 0
154 -154 0
80 -165 0
80 -166 0
165 -165 0
166 -166 0
100 -177 0
100 -178 0
177 -177 0
178 -178 0
120 -189 0
120 -190 0
189 -189 0
190 -190 0
-321 129 0
321 -129 0
-322 130 0
321 -130 0
-321 -129 0
-322 -130 0
-333 129 321 0
333 -129 0
333 -321 0
-334 130 322 0
334 -130 0
334 -322 0
-333 -141 0
-334 -142 0
-345 141 333 0
345 -141 0
345 -333 0
-346 142 334 0
346 -142 0
346 -334 0
-345 -153 0
-346 -154 0
-357 153 345 0
357 -153 0
357 -345 0
-358 154 346 0
358 -154 0
358 -346 0
-357 -165 0
-358 -166 0
-369 165 357 0
369 -165 0
369 -357 0
-370 166 358 0
370 -166 0
370 -358 0
-369 -177 0
-370 -178 0
-381 177 369 0
381 -177 0
381 -369 0
-382 178 370 0
382 -178 0
382 -370 0
-381 -189 0
-382 -190 0
381 0
382 0
-1 -131 0
-1 -132 0
131 -131 0
132 -132 0
-21 -143 0
-21 -144 0
143 -143 0
144 -144 0
-41 -155 0
-41 -156 0
155 -155 0
156 -156 0
-61 -167 0
-61 -168 0
167 -167 0
168 -168 0
-81 -179 0
-81 -180 0
179 -179 0
180 -180 0
-101 -191 0
-101 -192 0
191 -191 0
192 -192 0
2 -131 0
2 -132 0
131 -131 0
132 -132 0
22 -143 0
22 -144 0
143 -143 0
144 -144 0
42 -155 0
42 -156 0
155 -155 0
156 -156 0
62 -167 0
62 -168 0
167 -167 0
168 -168 0
82 -179 0
82 -180 0
179 -179 0
180 -180 0
102 -191 0
102 -192 0
191 -191 0
192 -192 0
3 -131 0
3 -132 0
131 -131 0
132 -132 0
23 -143 0
23 -144 0
143 -143 0
144 -144 0
43 -155 0
43 -156 0
155 -155 0
156 -156 0
63 -167 0
63 -168 0
167 -167 0
168 -168 0
83 -179 0
83 -180 0
179 -179 0
180 -180 0
103 -191 0
103 -192 0
191 -191 0
192 -192 0
4 -131 0
4 -132 0
131 -131 0
132 -132 0
24 -143 0
24 -144 0
143 -143 0
144 -144 0
44 -155 0
44 -156 0
155 -155 0
156 -156 0
64 -167 0
64 -168 0
167 -167 0
168 -168 0
84 -179 0
84 -180 0
179 -179 0
180 -180 0
104 -191 0
104 -192 0
191 -191 0
192 -192 0
5 -231 -131 0
-5 231 -131 0
5 231 -132 0
-5 -231 -132 0
25 -231 -143 0
-25 231 -143 0
25 231 -144 0
-25 -231 -144 0
45 -231 -155 0
-45 231 -155 0
45 231 -156 0
-45 -231 -156 0
65 -231 -167 0
-65 231 -167 0
65 231 -168 0
-65 -231 -168 0
85 -231 -179 0
-85 231 -179 0
85 231 -180 0
-85 -231 -180 0
105 -231 -191 0
-105 231 -191 0
105 231 -192 0
-105 -231 -192 0
6 -131 0
6 -132 0
131 -131 0
132 -132 0
26 -143 0
26 -144 0
143 -143 0
144 -144 0
46 -155 0
46 -156 0
155 -155 0
156 -156 0
66 -167 0
66 -168 0
167 -167 0
168 -168 0
86 -179 0
86 -180 0
179 -179 0
180 -180 0
106 -191 0
106 -192 0
191 -191 0
192 -192 0
7 -232 -131 0
-7 232 -131 0
7 232 -132 0
-7 -232 -132 0
27 -232 -143 0
-27 232 -143 0
27 232 -144 0
-27 -232 -144 0
47 -232 -155 0
-47 232 -155 0
47 232 -156 0
-47 -232 -156 0
67 -232 -167 0
-67 232 -167 0
67 232 -168 0
-67 -232 -168 0
87 -232 -179 0
-87 232 -179 0
87 232 -180 0
-87 -232 -180 0
107 -232 -191 0
-107 232 -191 0
107 232 -192 0
-107 -232 -192 0
8 -233 -131 0
-8 233 -131 0
8 233 -132 0
-8 -233 -132 0
28 -233 -143 0
-28 233 -143 0
28 233 -144 0
-28 -233 -144 0
48 -233 -155 0
-48 233 -155 0
48 233 -156 0
-48 -233 -156 0
68 -233 -167 0
-68 233 -167 0
68 233 -168 0
-68 -233 -168 0
88 -233 -179 0
-88 233 -179 0
88 233 -180 0
-88 -233 -180 0
108 -233 -191 0
-108 233 -191 0
108 233 -192 0
-108 -233 -192 0
9 -234 -131 0
-9 234 -131 0
9 234 -132 0
-9 -234 -132 0
29 -234 -143 0
-29 234 -143 0
29 234 -144 0
-29 -234 -144 0
49 -234 -155 0
-49 234 -155 0
49 234 -156 0
-49 -234 -156 0
69 -234 -167 0
-69 234 -167 0
69 234 -168 0
-69 -234 -168 0
89 -234 -179 0
-89 234 -179 0
89 234 -180 0
-89 -234 -180 0
109 -234 -191 0
-109 234 -191 0
109 234 -192 0
-109 -234 -192 0
10 -131 0
10 -132 0
131 -131 0
132 -132 0
30 -143 0
30 -144 0
143 -143 0
144 -144 0
50 -155 0
50 -156 0
155 -155 0
156 -156 0
70 -167 0
70 -168 0
167 -167 0
168 -168 0
90 -179 0
90 -180 0
179 -179 0
180 -180 0
110 -191 0
110 -192 0
191 -191 0
192 -192 0
11 -131 0
11 -132 0
131 -131 0
132 -132 0
31 -143 0
31 -144 0
143 -143 0
144 -144 0
51 -155 0
51 -156 0
155 -155 0
156 -156 0
71 -167 0
71 -168 0
167 -167 0
168 -168 0
91 -179 0
91 -180 0
179 -179 0
180 -180 0
111 -191 0
111 -192 0
191 -191 0
192 -192 0
12 -131 0
12 -132 0
131 -131 0
132 -132 0
32 -143 0
32 -144 0
143 -143 0
144 -144 0
52 -155 0
52 -156 0
155 -155 0
156 -156 0
72 -167 0
72 -168 0
167 -167 0
168 -168 0
92 -179 0
92 -180 0
179 -179 0
180 -180 0
112 -191 0
112 -192 0
191 -191 0
192 -192 0
-13 -131 0
-13 -132 0
131 -131 0
132 -132 0
-33 -143 0
-33 -144 0
143 -143 0
144 -144 0
-53 -155 0
-53 -156 0
155 -155 0
156 -156 0
-73 -167 0
-73 -168 0
167 -167 0
168 -168 0
-93 -179 0
-93 -180 0
179 -179 0
180 -180 0
-113 -191 0
-113 -192 0
191 -191 0
192 -192 0
14 -131 0
14 -132 0
131 -131 0
132 -132 0
34 -143 0
34 -144 0
143 -143 0
144 -144 0
54 -155 0
54 -156 0
155 -155 0
156 -156 0
74 -167 0
74 -168 0
167 -167 0
168 -168 0
94 -179 0
94 -180 0
179 -179 0
180 -180 0
114 -191 0
114 -192 0
191 -191 0
192 -192 0
15 -235 -131 0
-15 235 -131 0
15 235 -132 0
-15 -235 -132 0
35 -235 -143 0
-35 235 -143 0
35 235 -144 0
-35 -235 -144 0
55 -235 -155 0
-55 235 -155 0
55 235 -156 0
-55 -235 -156 0
75 -235 -167 0
-75 235 -167 0
75 235 -168 0
-75 -235 -168 0
95 -235 -179 0
-95 235 -179 0
95 235 -180 0
-95 -235 -180 0
115 -235 -191 0
-115 235 -191 0
115 235 -192 0
-115 -235 -192 0
16 -131 0
16 -132 0
131 -131 0
132 -132 0
36 -143 0
36 -144 0
143 -143 0
144 -144 0
56 -155 0
56 -156 0
155 -155 0
156 -156 0
76 -167 0
76 -168 0
167 -167 0
168 -168 0
96 -179 0
96 -180 0
179 -179 0
180 -180 0
116 -191 0
116 -192 0
191 -191 0
192 -192 0
17 -131 0
17 -132 0
131 -131 0
132 -132 0
37 -143 0
37 -144 0
143 -143 0
144 -144 0
57 -155 0
57 -156 0
155 -155 0
156 -156 0
77 -167 0
77 -168 0
167 -167 0
168 -168 0
97 -179 0
97 -180 0
179 -179 0
180 -180 0
117 -191 0
117 -192 0
191 -191 0
192 -192 0
-18 -131 0
-18 -132 0
131 -131 0
132 -132 0
-38 -143 0
-38 -144 0
143 -143 0
144 -144 0
-58 -155 0
-58 -156 0
155 -155 0
156 -156 0
-78 -167 0
-78 -168 0
167 -167 0
168 -168 0
-98 -179 0
-98 -180 0
179 -179 0
180 -180 0
-118 -191 0
-118 -192 0
191 -191 0
192 -192 0
19 -236 -131 0
-19 236 -131 0
19 236 -132 0
-19 -236 -132 0
39 -236 -143 0
-39 236 -143 0
39 236 -144 0
-39 -236 -144 0
59 -236 -155 0
-59 236 -155 0
59 236 -156 0
-59 -236 -156 0
79 -236 -167 0
-79 236 -167 0
79 236 -168 0
-79 -236 -168 0
99 -236 -179 0
-99 236 -179 0
99 236 -180 0
-99 -236 -180 0
119 -236 -191 0
-119 236 -191 0
119 236 -192 0
-119 -236 -192 0
20 -131 0
20 -132 0
131 -131 0
132 -132 0
40 -143 0
40 -144 0
143 -143 0
144 -144 0
60 -155 0
60 -156 0
155 -155 0
156 -156 0
80 -167 0
80 -168 0
167 -167 0
168 -168 0
100 -179 0
100 -180 0
179 -179 0
180 -180 0
120 -191 0
120 -192 0
191 -191 0
192 -192 0
-323 131 0
323 -131 0
-324 132 0
323 -132 0
-323 -131 0
-324 -132 0
-335 131 323 0
335 -131 0
335 -323 0
-336 132 324 0
336 -132 0
336 -324 0
-335 -143 0
-336 -144 0
-347 143 335 0
347 -143 0
347 -335 0
-348 144 336 0
348 -144 0
348 -336 0
-347 -155 0
-348 -156 0
-359 155 347 0
359 -155 0
359 -347 0
-360 156 348 0
360 -156 0
360 -348 0
-359 -167 0
-360 -168 0
-371 167 359 0
371 -167 0
371 -359 0
-372 168 360 0
372 -168 0
372 -360 0
-371 -179 0
-372 -180 0
-383 179 371 0
383 -179 0
383 -371 0
-384 180 372 0
384 -180 0
384 -372 0
-383 -191 0
-384 -192 0
383 0
384 0
